s td 86 36 130
b 1 3 21 70
b 2 22 56 97
b 3 6 25 31
b 4 15 29 90
b 5 35 39 78
b 6 5 41 88
b 7 44 67 123
b 8 12 26 62
b 9 12 26 106
b 10 68 97 109
b 11 70 73 79
b 12 35 81 130
b 13 84 105 116
b 14 35 48 65 86
b 15 71 87 102
b 16 12 28 92
b 17 12 28 106
b 18 105 115 116
b 19 107 116 127
b 20 61 108 116
b 21 80 101 117
b 22 8 102 118
b 23 116 120 124
b 24 34 75 121
b 25 65 116 122
b 26 49 101 126
b 27 35 48 130
b 28 35 48 65
b 29 8 9 102
b 30 49 101 103
b 31 61 71 116
b 32 35 65 116
b 33 71 102 116
b 34 5 88 119
b 35 16 97 109
b 36 67 116 127
b 37 45 67 116 119
b 38 67 116 119 123
b 39 9 36 100 102
b 40 15 17 20 69 83
b 41 15 17 50 69 83
b 42 1 2 4 5 6 7 10 11 12 14 23 24 27 32 34 43 54 58 63 64 70 74 76 77 89 94 95 97 98 99 101 102 110 115 123 128
b 43 1 2 4 5 6 10 11 12 14 23 24 27 32 34 38 43 58 63 64 70 74 76 77 89 94 95 97 98 99 101 102 110 115 123 128
b 44 1 4 5 6 10 11 12 14 23 24 27 32 34 38 43 58 63 64 70 74 77 89 94 95 97 98 99 101 102 110 111 115 123 128
b 45 1 4 5 6 10 11 12 14 23 24 27 32 34 38 43 63 64 70 74 77 82 89 94 97 98 99 101 102 110 111 115 123 128
b 46 1 4 5 6 10 11 12 14 23 24 27 32 34 38 40 43 63 64 74 77 82 89 94 97 98 99 101 102 110 111 115 123 128
b 47 1 4 5 6 10 11 12 14 23 24 27 38 40 43 57 63 64 77 82 99 101 102 110 111 115 128
b 48 5 6 10 11 13 14 23 24 27 38 43 57 63 64 77 82 99 101 102 115 128
b 49 5 6 10 13 14 24 38 42 43 57 63 64 77 82 101 102 128
b 50 4 24 32 40 43 55 63 64 74 82 89 94 98 102 111 115 123
b 51 12 38 70 82 106
b 52 70 73 82 106
b 53 1 2 4 5 6 7 10 11 12 14 23 24 27 32 34 43 54 58 63 64 70 74 76 77 89 94 95 97 98 99 101 102 115 123 125 128
b 54 1 2 4 5 6 7 11 12 14 23 24 27 32 34 43 54 58 63 64 70 74 76 77 89 94 95 97 98 99 101 102 114 115 123 125
b 55 1 2 4 5 6 11 12 14 24 27 32 34 43 54 58 63 64 70 74 76 89 94 97 98 100 101 102 114 115 123 125
b 56 2 4 5 6 11 12 24 27 34 43 54 58 60 63 64 70 74 76 89 94 97 98 100 101 102 114 115 123 125
b 57 2 4 5 11 24 34 43 54 58 60 63 64 70 74 76 89 91 94 97 98 100 101 102 114 115 123 125
b 58 4 5 34 54 58 60 63 64 70 89 91 97 98 100 101 102 115 116 123 125
b 59 4 34 60 70 80 97 98 100 101 102 116
b 60 4 33 70 80 97 98 101 102 116
b 61 4 33 70 97 102 112
b 62 16 33 97 102 112
b 63 33 80 98 101 103 116
b 64 33 80 93 103 116
b 65 34 36 60 80 100 102 116
b 66 34 35 36 60 80 116
b 67 35 36 59 80
b 68 5 116 119 123
b 69 11 54 58 70 72 74 91 98 123
b 70 2 6 7 12 30 54 63 70 77 89 95 99 114 115
b 71 1 4 5 7 10 11 14 27 32 37 54 64 74 76 125 128
b 72 1 6 18 23 54 58 64 76 77 89 95 98 102 110 128
b 73 4 5 10 12 14 53 74 94 95 123 128
b 74 16 33 51 102
b 75 15 19 52 66 83
b 76 15 19 66 83 104 129
b 77 35 59 80 113
b 78 15 46 47 50 66
b 79 15 19 47 50 66 75
b 80 15 17 19 50 66 75 83
b 81 15 17 19 66 75 83 129
b 82 15 19 66 75 83 129
b 83 15 17 19 75 85
b 84 15 17 50 66 75 83 96
b 85 15 34 75
b 86 15 34 35 60
1 42
2 42
3 42
4 86
5 66
6 34
7 38
8 9
9 51
10 35
11 52
12 27
13 18
14 28
15 33
16 17
17 51
18 58
19 36
20 31
21 59
22 29
23 58
24 85
25 32
26 30
27 28
28 32
29 39
30 63
31 33
32 66
33 58
34 68
35 62
36 38
37 38
38 68
39 65
40 41
41 80
42 43
42 53
42 72
42 73
43 44
44 45
45 46
45 51
46 47
46 50
47 48
48 49
51 52
53 54
53 71
54 55
54 70
55 56
56 57
57 58
57 69
58 59
58 68
59 60
59 65
60 61
60 63
61 62
62 74
63 64
65 66
66 86
66 67
67 77
75 80
76 81
78 79
79 85
79 80
80 84
80 81
81 83
81 82
85 86
